;; Preprocessed for Astral solver
(set-info :status sat)
;; variables
(declare-const x0 Loc)
(declare-const x1 Loc)
(declare-const x2 Loc)
(declare-const x3 Loc)
(declare-const x4 Loc)
(declare-const x5 Loc)
(declare-const x6 Loc)
(declare-const x7 Loc)
(declare-const x8 Loc)
(declare-const x9 Loc)
(declare-const x10 Loc)
(declare-const x11 Loc)
(declare-const x12 Loc)
(declare-const x13 Loc)
(declare-const x14 Loc)
(declare-const x15 Loc)
(declare-const x16 Loc)
(declare-const x17 Loc)
(declare-const x18 Loc)
(declare-const x19 Loc)
(declare-const x20 Loc)
(declare-const x21 Loc)
(declare-const x22 Loc)
(declare-const x23 Loc)
(declare-const x24 Loc)

(assert 
		(sep 
			(= nil nil)
			(distinct x6 x13)
			(distinct x11 x14)
			(distinct x3 x7)
			(distinct x7 x10)
			(distinct x7 x14)
			(distinct x9 x11)
			(distinct x17 x19)
			(distinct x12 x18)
			(distinct x12 x17)
			(distinct x2 x11)
			(distinct x2 x19)
			(distinct x2 x17)
			(distinct x14 x16)
			(distinct x1 x3)
			(distinct x4 x17)
			(distinct x10 x19)
			(distinct x10 x17)
			(distinct x10 x15)
			(distinct x13 x18)
			(distinct x13 x17)
			(distinct x5 x7)
			(distinct x5 x20)
		(sep 
			(ls x13 x10 )
			(ls x16 x10 )
			(ls x10 x19 )
			(ls x18 x14 )
			(ls x1 x20 )
			(ls x14 x3 )
			(ls x15 x14 )
			(ls x17 x10 )
			(ls x7 x10 )
			(ls x3 x20 )
			(ls x11 x2 )
			(ls x11 x8 )
			(ls x6 x2 )
		)

		)

)

(check-sat)
